Minimize
obj1:-19 x(1) +7 x(2) +14 x(3) +19 x(4) -18 x(5) -2 x(6) +3 x(7) +8 x(8) +9 x(9) +6 x(10) +9 x(11) -5 x(12) +3 x(13) -16 x(14) -18 x(15) +20 x(16) -9 x(17) +4 x(18) +19 x(19) -13 x(20)
Subject To
c1:+15 x(1) +12 x(2) +19 x(3) +6 x(4) +1 x(5) +17 x(6) +8 x(7) +6 x(8) +3 x(9) +7 x(10) +17 x(11) +15 x(12) +3 x(13) +1 x(14) +11 x(15) +18 x(16) +5 x(17) +2 x(18) +7 x(19) +6 x(20)  <=  88
c2:+18 x(1) +14 x(2) +8 x(3) +11 x(4) +12 x(5) +17 x(6) +10 x(7) +15 x(8) +17 x(9) +7 x(10) +8 x(11) +7 x(12) +8 x(13) +9 x(14) +12 x(15) +9 x(16) +16 x(17) +9 x(18) +13 x(19) +5 x(20)  <=  79
c3:+6 x(1) +8 x(2) +1 x(3) +20 x(4) +7 x(5) +8 x(6) +5 x(7) +6 x(8) +7 x(9) +1 x(10) +13 x(11) +11 x(12) +12 x(13) +17 x(14) +16 x(15) +3 x(16) +2 x(17) +4 x(18) +19 x(19) +5 x(20)  <=  88
c4:+15 x(1) +13 x(2) +7 x(3) +15 x(4) +19 x(5) +12 x(6) +16 x(7) +18 x(8) +5 x(9) +11 x(10) +17 x(11) +12 x(12) +10 x(13) +13 x(14) +2 x(15) +9 x(16) +8 x(17) +1 x(18) +19 x(19) +4 x(20)  <=  82
c5:+3 x(1) +17 x(2) +15 x(3) +17 x(4) +20 x(5) +18 x(6) +18 x(7) +17 x(8) +7 x(9) +2 x(10) +18 x(11) +4 x(12) +2 x(13) +11 x(14) +14 x(15) +7 x(16) +1 x(17) +20 x(18) +12 x(19) +20 x(20)  <=  56
c6:+17 x(1) +1 x(2) +16 x(3) +9 x(4) +6 x(5) +19 x(6) +19 x(7) +8 x(8) +8 x(9) +3 x(10) +19 x(11) +12 x(12) +5 x(13) +18 x(14) +11 x(15) +9 x(16) +5 x(17) +9 x(18) +7 x(19) +19 x(20)  <=  75
c7:+3 x(1) +2 x(2) +11 x(3) +10 x(4) +17 x(5) +14 x(6) +12 x(7) +10 x(8) +11 x(9) +13 x(10) +4 x(11) +14 x(12) +17 x(13) +2 x(14) +4 x(15) +17 x(16) +1 x(17) +20 x(18) +18 x(19) +17 x(20)  <=  67
c8:+12 x(1) +20 x(2) +14 x(3) +12 x(4) +18 x(5) +5 x(6) +12 x(7) +14 x(8) +12 x(9) +18 x(10) +6 x(11) +9 x(12) +1 x(13) +19 x(14) +19 x(15) +9 x(16) +4 x(17) +16 x(18) +9 x(19) +15 x(20)  <=  54
c9:+8 x(1) +14 x(2) +18 x(3) +6 x(4) +12 x(5) +14 x(6) +3 x(7) +17 x(8) +8 x(9) +20 x(10) +18 x(11) +17 x(12) +18 x(13) +3 x(14) +12 x(15) +8 x(16) +3 x(17) +1 x(18) +19 x(19) +4 x(20)  <=  57
c10:+17 x(1) +5 x(2) +2 x(3) +15 x(4) +18 x(5) +2 x(6) +18 x(7) +13 x(8) +8 x(9) +12 x(10) +12 x(11) +15 x(12) +2 x(13) +11 x(14) +9 x(15) +8 x(16) +6 x(17) +14 x(18) +1 x(19) +8 x(20)  <=  60
c11:+11 x(1) +9 x(2) +7 x(3) +11 x(4) +19 x(5) +9 x(6) +10 x(7) +12 x(8) +11 x(9) +20 x(10) +11 x(11) +8 x(12) +14 x(13) +3 x(14) +19 x(15) +3 x(16) +4 x(17) +15 x(18) +11 x(19) +4 x(20)  <=  84
c12:+10 x(1) +3 x(2) +1 x(3) +13 x(4) +11 x(5) +14 x(6) +5 x(7) +7 x(8) +14 x(9) +12 x(10) +13 x(11) +10 x(12) +11 x(13) +12 x(14) +14 x(15) +6 x(16) +3 x(17) +13 x(18) +15 x(19) +1 x(20)  <=  72
c13:+18 x(1) +6 x(2) +4 x(3) +7 x(4) +15 x(5) +19 x(6) +18 x(7) +10 x(8) +20 x(9) +11 x(10) +17 x(11) +8 x(12) +5 x(13) +1 x(14) +10 x(15) +2 x(16) +12 x(17) +12 x(18) +4 x(19) +7 x(20)  <=  85
c14:+8 x(1) +6 x(2) +15 x(3) +3 x(4) +12 x(5) +17 x(6) +16 x(7) +15 x(8) +15 x(9) +7 x(10) +11 x(11) +16 x(12) +12 x(13) +16 x(14) +17 x(15) +9 x(16) +19 x(17) +5 x(18) +7 x(19) +14 x(20)  <=  63
c15:+9 x(1) +7 x(2) +15 x(3) +10 x(4) +1 x(5) +10 x(6) +18 x(7) +18 x(8) +9 x(9) +9 x(10) +5 x(11) +15 x(12) +3 x(13) +17 x(14) +11 x(15) +6 x(16) +19 x(17) +16 x(18) +4 x(19) +13 x(20)  <=  50
c16:+20 x(1) +4 x(2) +18 x(3) +8 x(4) +9 x(5) +16 x(6) +6 x(7) +15 x(8) +17 x(9) +10 x(10) +10 x(11) +9 x(12) +14 x(13) +19 x(14) +12 x(15) +6 x(16) +5 x(17) +5 x(18) +7 x(19) +11 x(20)  <=  77
c17:+1 x(1) +7 x(2) +12 x(3) +16 x(4) +13 x(5) +9 x(6) +14 x(7) +1 x(8) +3 x(9) +2 x(10) +9 x(11) +14 x(12) +12 x(13) +20 x(14) +14 x(15) +9 x(16) +10 x(17) +8 x(18) +9 x(19) +9 x(20)  <=  64
c18:+20 x(1) +3 x(2) +2 x(3) +16 x(4) +11 x(5) +20 x(6) +14 x(7) +14 x(8) +2 x(9) +18 x(10) +20 x(11) +19 x(12) +2 x(13) +11 x(14) +8 x(15) +3 x(16) +8 x(17) +18 x(18) +11 x(19) +6 x(20)  <=  98
c19:+4 x(1) +18 x(2) +19 x(3) +14 x(4) +8 x(5) +20 x(6) +3 x(7) +9 x(8) +2 x(9) +2 x(10) +13 x(11) +16 x(12) +2 x(13) +6 x(14) +5 x(15) +10 x(16) +11 x(17) +18 x(18) +1 x(19) +11 x(20)  <=  96
c20:+14 x(1) +2 x(2) +17 x(3) +3 x(4) +19 x(5) +18 x(6) +9 x(7) +9 x(8) +4 x(9) +9 x(10) +14 x(11) +15 x(12) +4 x(13) +3 x(14) +12 x(15) +15 x(16) +6 x(17) +9 x(18) +12 x(19) +16 x(20)  <=  70
obj2:-13 x(1) -6 x(2) +18 x(3) -4 x(4) -9 x(5) -14 x(6) -4 x(7) -5 x(8) -15 x(9) -3 x(10) -17 x(11) +5 x(12) -20 x(13) +3 x(14) +12 x(15) -11 x(16) -2 x(17) +3 x(18) -18 x(19) +0 x(20)  <=  0
Binaries
x(1) x(2) x(3) x(4) x(5) x(6) x(7) x(8) x(9) x(10) x(11) x(12) x(13) x(14) x(15) x(16) x(17) x(18) x(19) x(20)
End
